data/solutions/recovery/degenerate/intermediate/flexible/degenerate_intermediate_instance23/30.sol
Elapsed time: 100.1
Upper bound: 227223476.0
Planning weighted value: 8.90749674656e+11
C[0]=227223476.0
C[1]=227134155.0
C[2]=227124684.0
C[3]=226869189.0
C[4]=226868413.0
C[5]=226859426.0
C[6]=226392469.0
C[7]=225735702.0
C[8]=225481718.0
C[9]=221363813.0
C[10]=221352855.0
C[11]=0.0
y[0]=9
y[1]=5
y[2]=4
y[3]=7
y[4]=7
y[5]=7
y[6]=5
y[7]=3
y[8]=6
y[9]=0
y[10]=10
y[11]=2
y[12]=3
y[13]=8
y[14]=1
y[15]=6
y[16]=9
y[17]=9
y[18]=2
y[19]=4
y[20]=0
y[21]=4
y[22]=9
y[23]=6
y[24]=0
y[25]=0
y[26]=10
y[27]=3
y[28]=6
y[29]=8
y[30]=1
y[31]=0
y[32]=8
y[33]=7
y[34]=6
y[35]=1
y[36]=3
y[37]=0
y[38]=6
y[39]=10
y[40]=3
y[41]=5
y[42]=8
y[43]=5
y[44]=7
y[45]=4
y[46]=3
y[47]=8
y[48]=9
y[49]=9
y[50]=10
y[51]=4
y[52]=0
y[53]=6
y[54]=9
y[55]=9
y[56]=1
y[57]=7
y[58]=1
y[59]=9
y[60]=2
y[61]=3
y[62]=10
y[63]=10
y[64]=2
y[65]=1
y[66]=8
y[67]=7
y[68]=5
y[69]=7
y[70]=9
y[71]=6
y[72]=5
y[73]=4
y[74]=4
y[75]=8
y[76]=4
y[77]=2
