data/solutions/recovery/degenerate/intermediate/flexible/degenerate_intermediate_instance23/30.log

Log started (V12.6.3.0) Sat Apr 21 15:18:46 2018

New value for default parallel thread count: 1

Problem '/tmp/tmpNr2xlC.pyomo.lp' read.
Read time = 0.02 sec. (0.83 ticks)

Problem name         : /tmp/tmpNr2xlC.pyomo.lp
Objective sense      : Minimize
Variables            :     950  [Nneg: 1,  Binary: 936,  General Integer: 13]
Objective nonzeros   :       1
Linear constraints   :     182  [Less: 90,  Equal: 92]
  Nonzeros           :   59401
  RHS nonzeros       :     157

Variables            : Min LB: 0.000000         Max UB: 1.000000       
Objective nonzeros   : Min   : 1.000000         Max   : 1.000000       
Linear constraints   :
  Nonzeros           : Min   : 1.000000         Max   : 6.145599e+07   
  RHS nonzeros       : Min   : 1.000000         Max   : 8.000000       
Tried aggregator 2 times.
MIP Presolve eliminated 83 rows and 142 columns.
Aggregator did 4 substitutions.
Reduced MIP has 95 rows, 804 columns, and 2247 nonzeros.
Reduced MIP has 792 binaries, 12 generals, 0 SOSs, and 0 indicators.
Presolve time = 0.01 sec. (10.78 ticks)
Found incumbent of value 6.9298977e+08 after 0.01 sec. (12.30 ticks)
Probing time = 0.00 sec. (1.59 ticks)
Tried aggregator 1 time.
Reduced MIP has 95 rows, 804 columns, and 2247 nonzeros.
Reduced MIP has 792 binaries, 12 generals, 0 SOSs, and 0 indicators.
Presolve time = 0.00 sec. (1.15 ticks)
Probing time = 0.00 sec. (1.59 ticks)
Clique table members: 72.
MIP emphasis: balance optimality and feasibility.
MIP search method: dynamic search.
Parallel mode: none, using 1 thread.
Root relaxation solution time = 0.00 sec. (1.20 ticks)

        Nodes                                         Cuts/
   Node  Left     Objective  IInf  Best Integer    Best Bound    ItCnt     Gap

*     0+    0                       6.92990e+08        0.0000           100.00%
      0     0   2.25673e+08    28   6.92990e+08   2.25673e+08      116   67.43%
      0     0   2.25673e+08    25   6.92990e+08      Fract: 7      135   67.43%
      0     0   2.25673e+08    24   6.92990e+08      Fract: 2      145   67.43%
*     0+    0                       2.61502e+08   2.25673e+08            13.70%
*     0+    0                       2.50220e+08   2.25673e+08             9.81%
*     0+    0                       2.48806e+08   2.25673e+08             9.30%
*     0+    0                       2.46837e+08   2.25673e+08             8.57%
      0     2   2.25673e+08    17   2.46837e+08   2.25673e+08      145    8.57%
Elapsed time = 0.05 sec. (54.12 ticks, tree = 0.01 MB, solutions = 5)
*    30+   30                       2.39283e+08   2.25673e+08             5.69%
*    70+   61                       2.38253e+08   2.25673e+08             5.28%
*    80+   67                       2.37669e+08   2.25673e+08             5.05%
*   140+  118                       2.33691e+08   2.25673e+08             3.43%
*   190+  159                       2.33172e+08   2.25673e+08             3.22%
*   290+  249                       2.31676e+08   2.25673e+08             2.59%
*   571   412      integral     0   2.31356e+08   2.25673e+08     2953    2.46%
    978   743   2.27134e+08    31   2.31356e+08   2.25673e+08     4588    2.46%
    979   744   2.27134e+08    30   2.31356e+08   2.25673e+08     4590    2.46%
    980   745   2.27134e+08    31   2.31356e+08   2.25673e+08     4591    2.46%
    981   746   2.27134e+08    31   2.31356e+08   2.25673e+08     4596    2.46%
    982   747   2.28638e+08    26   2.31356e+08   2.25673e+08     4618    2.46%
    983   746   2.31298e+08    22   2.31356e+08   2.25673e+08     4625    2.46%
    984   745    infeasible         2.31356e+08   2.25673e+08     4625    2.46%
    985   746   2.25903e+08    29   2.31356e+08   2.25673e+08     4633    2.46%
    986   747   2.25903e+08    30   2.31356e+08   2.25673e+08     4634    2.46%
*   997+  742                       2.30487e+08   2.25673e+08             2.09%
*   998+  731                       2.29761e+08   2.25673e+08             1.78%
*  1099+  529                       2.29610e+08   2.25673e+08             1.71%
*  1099+  379                       2.29533e+08   2.25673e+08             1.68%
*  1199+  299                       2.29157e+08   2.25673e+08             1.52%
*  1399+  285                       2.29071e+08   2.25673e+08             1.48%
   1399   287   2.25673e+08    19   2.29071e+08   2.25673e+08     6683    1.48%
Elapsed time = 0.93 sec. (1125.92 ticks, tree = 0.15 MB, solutions = 18)
*  1599+  363                       2.28698e+08   2.25673e+08             1.32%
   3003  1297   2.25673e+08    25   2.28698e+08   2.25673e+08    14271    1.32%
   3004  1298   2.25673e+08    25   2.28698e+08   2.25673e+08    14275    1.32%
   3005  1299   2.25673e+08    24   2.28698e+08   2.25673e+08    14276    1.32%
   3006  1300   2.25673e+08    25   2.28698e+08   2.25673e+08    14277    1.32%
   3007  1301   2.25673e+08    24   2.28698e+08   2.25673e+08    14281    1.32%
   3008  1302   2.25673e+08    27   2.28698e+08   2.25673e+08    14292    1.32%
   3009  1303   2.25673e+08    24   2.28698e+08   2.25673e+08    14294    1.32%
   3010  1304   2.25673e+08    26   2.28698e+08   2.25673e+08    14298    1.32%
   3011  1305   2.25673e+08    24   2.28698e+08   2.25673e+08    14299    1.32%
   3012  1306   2.25673e+08    25   2.28698e+08   2.25673e+08    14304    1.32%
Elapsed time = 1.69 sec. (2082.75 ticks, tree = 0.77 MB, solutions = 19)
   7008  4741   2.26352e+08    31   2.28698e+08   2.25673e+08    29264    1.32%
   7009  4742   2.26352e+08    30   2.28698e+08   2.25673e+08    29275    1.32%
   7010  4743   2.26352e+08    30   2.28698e+08   2.25673e+08    29287    1.32%
   7011  4744   2.26352e+08    30   2.28698e+08   2.25673e+08    29298    1.32%
   7012  4745   2.26352e+08    30   2.28698e+08   2.25673e+08    29316    1.32%
   7013  4746   2.26352e+08    31   2.28698e+08   2.25673e+08    29324    1.32%
   7014  4747   2.26352e+08    34   2.28698e+08   2.25673e+08    29326    1.32%
   7015  4748   2.26352e+08    34   2.28698e+08   2.25673e+08    29339    1.32%
   7016  4749   2.26352e+08    34   2.28698e+08   2.25673e+08    29342    1.32%
   7017  4750   2.26352e+08    30   2.28698e+08   2.25673e+08    29367    1.32%
Elapsed time = 2.43 sec. (3040.01 ticks, tree = 3.05 MB, solutions = 19)
  10558  7804   2.25683e+08    32   2.28698e+08   2.25673e+08    52050    1.32%
  10559  7805   2.25683e+08    32   2.28698e+08   2.25673e+08    52053    1.32%
  10560  7806   2.25683e+08    31   2.28698e+08   2.25673e+08    52058    1.32%
  10561  7807   2.25683e+08    31   2.28698e+08   2.25673e+08    52059    1.32%
  10562  7808   2.25683e+08    32   2.28698e+08   2.25673e+08    52060    1.32%
  10563  7809   2.25683e+08    31   2.28698e+08   2.25673e+08    52064    1.32%
  10564  7810   2.25683e+08    33   2.28698e+08   2.25673e+08    52066    1.32%
  10565  7811   2.25683e+08    33   2.28698e+08   2.25673e+08    52067    1.32%
  10566  7812   2.25694e+08    32   2.28698e+08   2.25673e+08    52073    1.32%
  10567  7813   2.25748e+08    33   2.28698e+08   2.25673e+08    52075    1.32%
Elapsed time = 3.18 sec. (3996.04 ticks, tree = 4.84 MB, solutions = 19)
  12868  9905   2.26552e+08    29   2.28698e+08   2.25673e+08    67447    1.32%
  12869  9906   2.25673e+08    21   2.28698e+08   2.25673e+08    67448    1.32%
  12870  9907   2.25673e+08    22   2.28698e+08   2.25673e+08    67450    1.32%
  12871  9908   2.25673e+08    21   2.28698e+08   2.25673e+08    67492    1.32%
  12872  9909   2.25703e+08    41   2.28698e+08   2.25673e+08    67626    1.32%
  12873  9910   2.25703e+08    43   2.28698e+08   2.25673e+08    67639    1.32%
  12874  9911   2.25706e+08    41   2.28698e+08   2.25673e+08    67640    1.32%
  12875  9912   2.25710e+08    40   2.28698e+08   2.25673e+08    67642    1.32%
  12876  9913   2.25710e+08    40   2.28698e+08   2.25673e+08    67643    1.32%
  12877  9914   2.25715e+08    42   2.28698e+08   2.25673e+08    67644    1.32%
Elapsed time = 3.96 sec. (4955.42 ticks, tree = 6.28 MB, solutions = 19)
  15495 12259   2.25765e+08    40   2.28698e+08   2.25673e+08    96012    1.32%
  15496 12260   2.25765e+08    39   2.28698e+08   2.25673e+08    96017    1.32%
  15497 12261   2.25765e+08    39   2.28698e+08   2.25673e+08    96026    1.32%
  15498 12262   2.25765e+08    40   2.28698e+08   2.25673e+08    96027    1.32%
  15499 12263   2.25765e+08    40   2.28698e+08   2.25673e+08    96028    1.32%
  15500 12264   2.25765e+08    40   2.28698e+08   2.25673e+08    96029    1.32%
  15501 12265   2.25765e+08    39   2.28698e+08   2.25673e+08    96030    1.32%
  15502 12266   2.25765e+08    39   2.28698e+08   2.25673e+08    96031    1.32%
  15503 12267   2.25765e+08    40   2.28698e+08   2.25673e+08    96032    1.32%
  15504 12268   2.25765e+08    39   2.28698e+08   2.25673e+08    96033    1.32%
Elapsed time = 4.64 sec. (5910.62 ticks, tree = 7.64 MB, solutions = 19)
  17713 14259   2.25673e+08    23   2.28698e+08   2.25673e+08   125589    1.32%
  17714 14260   2.25673e+08    24   2.28698e+08   2.25673e+08   125594    1.32%
  17715 14261   2.25673e+08    23   2.28698e+08   2.25673e+08   125595    1.32%
  17716 14262   2.25673e+08    26   2.28698e+08   2.25673e+08   125655    1.32%
  17717 14263   2.25711e+08    47   2.28698e+08   2.25673e+08   125850    1.32%
  17718 14264   2.25711e+08    42   2.28698e+08   2.25673e+08   125855    1.32%
  17719 14265   2.25711e+08    39   2.28698e+08   2.25673e+08   125856    1.32%
  17720 14266   2.25711e+08    37   2.28698e+08   2.25673e+08   125857    1.32%
  17721 14267   2.25768e+08    32   2.28698e+08   2.25673e+08   125864    1.32%
  17722 14268   2.25768e+08    29   2.28698e+08   2.25673e+08   125874    1.32%
Elapsed time = 5.33 sec. (6874.14 ticks, tree = 8.79 MB, solutions = 19)
  19938 16241   2.25673e+08    28   2.28698e+08   2.25673e+08   148270    1.32%
  19939 16242   2.25673e+08    24   2.28698e+08   2.25673e+08   148275    1.32%
  19940 16243   2.25673e+08    24   2.28698e+08   2.25673e+08   148282    1.32%
  19941 16244   2.25673e+08    32   2.28698e+08   2.25673e+08   148343    1.32%
  19942 16245   2.25673e+08    27   2.28698e+08   2.25673e+08   148369    1.32%
  19943 16246   2.25673e+08    26   2.28698e+08   2.25673e+08   148378    1.32%
  19944 16247   2.25673e+08    22   2.28698e+08   2.25673e+08   148390    1.32%
  19945 16248   2.25673e+08    22   2.28698e+08   2.25673e+08   148395    1.32%
  19946 16249   2.25673e+08    24   2.28698e+08   2.25673e+08   148398    1.32%
  19947 16250   2.25673e+08    23   2.28698e+08   2.25673e+08   148406    1.32%
Elapsed time = 6.02 sec. (7832.69 ticks, tree = 10.05 MB, solutions = 19)
  22678 18698   2.27134e+08    29   2.28698e+08   2.25673e+08   176099    1.32%
  22679 18699   2.27134e+08    28   2.28698e+08   2.25673e+08   176100    1.32%
  22680 18700   2.27134e+08    28   2.28698e+08   2.25673e+08   176108    1.32%
  22681 18701   2.27134e+08    30   2.28698e+08   2.25673e+08   176115    1.32%
  22682 18702   2.27134e+08    28   2.28698e+08   2.25673e+08   176119    1.32%
  22683 18703   2.27134e+08    29   2.28698e+08   2.25673e+08   176123    1.32%
  22684 18704   2.27134e+08    31   2.28698e+08   2.25673e+08   176146    1.32%
  22685 18705   2.27134e+08    31   2.28698e+08   2.25673e+08   176147    1.32%
  22686 18706   2.27134e+08    31   2.28698e+08   2.25673e+08   176148    1.32%
  22687 18707   2.27134e+08    31   2.28698e+08   2.25673e+08   176149    1.32%
Elapsed time = 6.71 sec. (8788.61 ticks, tree = 12.05 MB, solutions = 19)
  24932 20718   2.26687e+08    31   2.28698e+08   2.25673e+08   200812    1.32%
  24933 20718   2.26687e+08    31   2.28698e+08   2.25673e+08   200813    1.32%
  24934 20719   2.26687e+08    34   2.28698e+08   2.25673e+08   200834    1.32%
  24935 20720   2.26687e+08    32   2.28698e+08   2.25673e+08   200838    1.32%
  24936 20721   2.26687e+08    32   2.28698e+08   2.25673e+08   200839    1.32%
  24937 20722   2.26687e+08    33   2.28698e+08   2.25673e+08   200841    1.32%
  24938 20723   2.26687e+08    36   2.28698e+08   2.25673e+08   200843    1.32%
  24939 20724   2.26687e+08    34   2.28698e+08   2.25673e+08   200846    1.32%
  24940 20725   2.26687e+08    36   2.28698e+08   2.25673e+08   200848    1.32%
  30719 25799   2.27134e+08    35   2.28698e+08   2.25673e+08   273152    1.32%
Elapsed time = 9.44 sec. (12603.40 ticks, tree = 16.37 MB, solutions = 19)
  36620 30910   2.25673e+08    27   2.28698e+08   2.25673e+08   359959    1.32%
  36621 30911   2.25673e+08    26   2.28698e+08   2.25673e+08   359970    1.32%
  36622 30910        cutoff         2.28698e+08   2.25673e+08   359980    1.32%
  36623 30911   2.25673e+08    28   2.28698e+08   2.25673e+08   359984    1.32%
  36624 30912   2.25673e+08    28   2.28698e+08   2.25673e+08   359985    1.32%
  36625 30913   2.25673e+08    28   2.28698e+08   2.25673e+08   359986    1.32%
  36626 30914   2.25673e+08    28   2.28698e+08   2.25673e+08   359992    1.32%
  36627 30915   2.25673e+08    32   2.28698e+08   2.25673e+08   359997    1.32%
  36628 30916   2.25673e+08    30   2.28698e+08   2.25673e+08   359998    1.32%
  36629 30917   2.25673e+08    31   2.28698e+08   2.25673e+08   360004    1.32%
Elapsed time = 12.12 sec. (16421.08 ticks, tree = 19.59 MB, solutions = 19)
  40343 34040   2.26567e+08    27   2.28698e+08   2.25673e+08   436227    1.32%
  40344 34041   2.26575e+08    27   2.28698e+08   2.25673e+08   436261    1.32%
  40345 34042   2.28371e+08    12   2.28698e+08   2.25673e+08   436271    1.32%
  40346 34041        cutoff         2.28698e+08   2.25673e+08   436275    1.32%
  40347 34040        cutoff         2.28698e+08   2.25673e+08   436278    1.32%
  40348 34041   2.26567e+08    29   2.28698e+08   2.25673e+08   436497    1.32%
  40349 34042   2.26567e+08    34   2.28698e+08   2.25673e+08   436546    1.32%
  40350 34042   2.26567e+08    30   2.28698e+08   2.25673e+08   436558    1.32%
  40351 34043   2.26567e+08    32   2.28698e+08   2.25673e+08   436572    1.32%
  40352 34044   2.26567e+08    29   2.28698e+08   2.25673e+08   436589    1.32%
Elapsed time = 14.87 sec. (20253.08 ticks, tree = 22.56 MB, solutions = 19)
  44701 37851   2.26567e+08    44   2.28698e+08   2.25673e+08   521828    1.32%
  44702 37852   2.26567e+08    37   2.28698e+08   2.25673e+08   521834    1.32%
  44703 37853   2.26567e+08    36   2.28698e+08   2.25673e+08   521837    1.32%
  44704 37854   2.26567e+08    35   2.28698e+08   2.25673e+08   521848    1.32%
  44705 37855   2.26567e+08    34   2.28698e+08   2.25673e+08   521850    1.32%
  44706 37856   2.26567e+08    35   2.28698e+08   2.25673e+08   521851    1.32%
  44707 37857   2.26567e+08    43   2.28698e+08   2.25673e+08   521852    1.32%
  44708 37858   2.26567e+08    36   2.28698e+08   2.25673e+08   521862    1.32%
  44709 37859   2.27857e+08    18   2.28698e+08   2.25673e+08   521902    1.32%
  44710 37858        cutoff         2.28698e+08   2.25673e+08   521923    1.32%
Elapsed time = 17.54 sec. (24084.03 ticks, tree = 24.94 MB, solutions = 19)
  50854 42738   2.25673e+08    20   2.28698e+08   2.25673e+08   605628    1.32%
  50855 42739   2.25673e+08    18   2.28698e+08   2.25673e+08   605630    1.32%
  50856 42740   2.25673e+08    20   2.28698e+08   2.25673e+08   605645    1.32%
  50857 42741   2.25673e+08    22   2.28698e+08   2.25673e+08   605653    1.32%
  50858 42742   2.25673e+08    22   2.28698e+08   2.25673e+08   605660    1.32%
  50859 42743   2.25673e+08    20   2.28698e+08   2.25673e+08   605673    1.32%
  50860 42744   2.25673e+08    24   2.28698e+08   2.25673e+08   605706    1.32%
  50861 42745   2.25673e+08    25   2.28698e+08   2.25673e+08   605711    1.32%
  50862 42746   2.25673e+08    25   2.28698e+08   2.25673e+08   605719    1.32%
  50863 42747   2.25673e+08    30   2.28698e+08   2.25673e+08   605727    1.32%
Elapsed time = 20.32 sec. (27907.85 ticks, tree = 28.29 MB, solutions = 19)
  57157 46911   2.25673e+08    23   2.28698e+08   2.25673e+08   680815    1.32%
  57158 46912   2.25673e+08    21   2.28698e+08   2.25673e+08   680830    1.32%
  57159 46913   2.25673e+08    24   2.28698e+08   2.25673e+08   680842    1.32%
  57160 46914   2.25673e+08    24   2.28698e+08   2.25673e+08   680843    1.32%
  57161 46915   2.25673e+08    25   2.28698e+08   2.25673e+08   680853    1.32%
  57162 46916   2.25673e+08    24   2.28698e+08   2.25673e+08   680855    1.32%
  57163 46917   2.25673e+08    24   2.28698e+08   2.25673e+08   680856    1.32%
  57164 46918   2.25673e+08    25   2.28698e+08   2.25673e+08   680857    1.32%
  57165 46919   2.25673e+08    27   2.28698e+08   2.25673e+08   680865    1.32%
  57166 46920   2.25673e+08    25   2.28698e+08   2.25673e+08   680866    1.32%
Elapsed time = 23.71 sec. (31725.78 ticks, tree = 31.27 MB, solutions = 19)
  64687 52973   2.26083e+08    35   2.28698e+08   2.25673e+08   761105    1.32%
  64688 52974   2.26124e+08    38   2.28698e+08   2.25673e+08   761111    1.32%
  64689 52975   2.26168e+08    37   2.28698e+08   2.25673e+08   761113    1.32%
  64690 52976   2.26195e+08    38   2.28698e+08   2.25673e+08   761114    1.32%
  64691 52977   2.26223e+08    39   2.28698e+08   2.25673e+08   761116    1.32%
  64692 52976        cutoff         2.28698e+08   2.25673e+08   761117    1.32%
  64693 52977   2.26489e+08    39   2.28698e+08   2.25673e+08   761123    1.32%
  64694 52977   2.26513e+08    38   2.28698e+08   2.25673e+08   761126    1.32%
  64695 52978   2.26531e+08    36   2.28698e+08   2.25673e+08   761129    1.32%
  64696 52977        cutoff         2.28698e+08   2.25673e+08   761136    1.32%
Elapsed time = 27.08 sec. (35543.48 ticks, tree = 35.51 MB, solutions = 19)
  72686 59096   2.26021e+08    28   2.28698e+08   2.25673e+08   840118    1.32%
  72687 59095        cutoff         2.28698e+08   2.25673e+08   840141    1.32%
  72688 59094    infeasible         2.28698e+08   2.25673e+08   840141    1.32%
  72689 59093        cutoff         2.28698e+08   2.25673e+08   840158    1.32%
  72690 59094   2.25673e+08    20   2.28698e+08   2.25673e+08   840169    1.32%
  72691 59095   2.25673e+08    24   2.28698e+08   2.25673e+08   840199    1.32%
  72692 59096   2.25673e+08    24   2.28698e+08   2.25673e+08   840200    1.32%
  72693 59097   2.25673e+08    24   2.28698e+08   2.25673e+08   840212    1.32%
  72694 59098   2.25673e+08    21   2.28698e+08   2.25673e+08   840216    1.32%
  72695 59099   2.25673e+08    21   2.28698e+08   2.25673e+08   840220    1.32%
Elapsed time = 30.44 sec. (39366.26 ticks, tree = 39.79 MB, solutions = 19)
* 75899+59516                       2.28185e+08   2.25673e+08             1.10%
  79773 62483   2.26250e+08    28   2.28185e+08   2.25673e+08   921363    1.10%
  79774 62484   2.26250e+08    26   2.28185e+08   2.25673e+08   921383    1.10%
  79775 62485   2.26250e+08    31   2.28185e+08   2.25673e+08   921409    1.10%
  79776 62486   2.26250e+08    27   2.28185e+08   2.25673e+08   921420    1.10%
  79777 62487   2.26250e+08    28   2.28185e+08   2.25673e+08   921425    1.10%
  79778 62488   2.26250e+08    28   2.28185e+08   2.25673e+08   921426    1.10%
  79779 62489   2.26250e+08    28   2.28185e+08   2.25673e+08   921427    1.10%
  79780 62490   2.26250e+08    27   2.28185e+08   2.25673e+08   921452    1.10%
  79781 62491   2.26250e+08    31   2.28185e+08   2.25673e+08   921461    1.10%
  79782 62492   2.26250e+08    33   2.28185e+08   2.25673e+08   921472    1.10%
Elapsed time = 33.89 sec. (43185.90 ticks, tree = 42.15 MB, solutions = 20)
  84992 66911   2.25679e+08    37   2.28185e+08   2.25673e+08   999410    1.10%
  84993 66912   2.25679e+08    37   2.28185e+08   2.25673e+08   999411    1.10%
  84994 66913   2.25679e+08    37   2.28185e+08   2.25673e+08   999422    1.10%
  84995 66914   2.25679e+08    37   2.28185e+08   2.25673e+08   999423    1.10%
  84996 66915   2.25679e+08    37   2.28185e+08   2.25673e+08   999425    1.10%
  84997 66916   2.25679e+08    37   2.28185e+08   2.25673e+08   999426    1.10%
  84998 66917   2.25679e+08    40   2.28185e+08   2.25673e+08   999428    1.10%
  84999 66918   2.25679e+08    39   2.28185e+08   2.25673e+08   999430    1.10%
  85000 66919   2.25679e+08    37   2.28185e+08   2.25673e+08   999431    1.10%
  85001 66920   2.25679e+08    39   2.28185e+08   2.25673e+08   999440    1.10%
Elapsed time = 37.36 sec. (47118.36 ticks, tree = 47.02 MB, solutions = 20)
  91428 72613   2.27134e+08    27   2.28185e+08   2.25673e+08  1089441    1.10%
  91429 72614   2.27134e+08    25   2.28185e+08   2.25673e+08  1089456    1.10%
  91430 72615   2.27134e+08    28   2.28185e+08   2.25673e+08  1089470    1.10%
  91431 72616   2.27134e+08    26   2.28185e+08   2.25673e+08  1089474    1.10%
  91432 72617   2.27134e+08    26   2.28185e+08   2.25673e+08  1089475    1.10%
  91433 72618   2.27134e+08    26   2.28185e+08   2.25673e+08  1089476    1.10%
  91434 72619   2.27134e+08    26   2.28185e+08   2.25673e+08  1089477    1.10%
  91435 72620   2.27134e+08    26   2.28185e+08   2.25673e+08  1089484    1.10%
  91436 72621   2.27134e+08    24   2.28185e+08   2.25673e+08  1089510    1.10%
  91437 72622   2.27134e+08    26   2.28185e+08   2.25673e+08  1089527    1.10%
Elapsed time = 40.75 sec. (50936.39 ticks, tree = 50.77 MB, solutions = 20)
  97026 77411   2.27134e+08    25   2.28185e+08   2.25673e+08  1176631    1.10%
  97027 77412   2.27382e+08    23   2.28185e+08   2.25673e+08  1176697    1.10%
  97028 77413   2.27382e+08    24   2.28185e+08   2.25673e+08  1176701    1.10%
  97029 77413   2.27382e+08    25   2.28185e+08   2.25673e+08  1176702    1.10%
  97030 77414   2.27382e+08    24   2.28185e+08   2.25673e+08  1176703    1.10%
  97031 77414   2.27382e+08    24   2.28185e+08   2.25673e+08  1176706    1.10%
  97032 77415   2.27382e+08    24   2.28185e+08   2.25673e+08  1176707    1.10%
  97033 77416   2.27382e+08    24   2.28185e+08   2.25673e+08  1176708    1.10%
  97034 77417   2.27382e+08    23   2.28185e+08   2.25673e+08  1176713    1.10%
  97035 77417   2.27382e+08    23   2.28185e+08   2.25673e+08  1176717    1.10%
Elapsed time = 44.20 sec. (54755.59 ticks, tree = 53.91 MB, solutions = 20)
 103062 82218   2.27134e+08    26   2.28185e+08   2.25673e+08  1263785    1.10%
 103063 82219   2.27134e+08    24   2.28185e+08   2.25673e+08  1263797    1.10%
 103064 82220   2.27134e+08    25   2.28185e+08   2.25673e+08  1263853    1.10%
 103065 82221   2.27134e+08    25   2.28185e+08   2.25673e+08  1263854    1.10%
 103066 82222   2.27134e+08    26   2.28185e+08   2.25673e+08  1263858    1.10%
 103067 82223   2.27134e+08    26   2.28185e+08   2.25673e+08  1263870    1.10%
 103068 82224   2.27134e+08    30   2.28185e+08   2.25673e+08  1263889    1.10%
 103069 82225   2.27134e+08    29   2.28185e+08   2.25673e+08  1263890    1.10%
 103070 82226   2.27134e+08    32   2.28185e+08   2.25673e+08  1263916    1.10%
 103071 82227   2.27134e+08    27   2.28185e+08   2.25673e+08  1263917    1.10%
Elapsed time = 47.56 sec. (58575.47 ticks, tree = 57.15 MB, solutions = 20)
*106099+84598                       2.28165e+08   2.25673e+08             1.09%
*106299+84722                       2.28151e+08   2.25673e+08             1.09%
 108483 86608   2.26143e+08    35   2.28151e+08   2.25673e+08  1350569    1.09%
 108484 86608   2.26143e+08    37   2.28151e+08   2.25673e+08  1350570    1.09%
 108485 86609   2.27134e+08    27   2.28151e+08   2.25673e+08  1350590    1.09%
 108486 86610   2.27134e+08    25   2.28151e+08   2.25673e+08  1350595    1.09%
 108487 86611   2.27134e+08    28   2.28151e+08   2.25673e+08  1350607    1.09%
 108488 86612   2.27134e+08    27   2.28151e+08   2.25673e+08  1350609    1.09%
 108489 86613   2.27134e+08    29   2.28151e+08   2.25673e+08  1350615    1.09%
 108490 86614   2.27134e+08    34   2.28151e+08   2.25673e+08  1350625    1.09%
 108491 86615   2.27134e+08    29   2.28151e+08   2.25673e+08  1350627    1.09%
 108492 86616   2.27134e+08    28   2.28151e+08   2.25673e+08  1350639    1.09%
Elapsed time = 51.04 sec. (62397.62 ticks, tree = 60.05 MB, solutions = 22)
 114290 91435   2.27134e+08    29   2.28151e+08   2.25673e+08  1435889    1.09%
 114291 91436   2.27134e+08    36   2.28151e+08   2.25673e+08  1435990    1.09%
 114292 91435        cutoff         2.28151e+08   2.25673e+08  1436052    1.09%
 114293 91434    infeasible         2.28151e+08   2.25673e+08  1436052    1.09%
 114294 91433        cutoff         2.28151e+08   2.25673e+08  1436112    1.09%
 114295 91434   2.25948e+08    42   2.28151e+08   2.25673e+08  1436300    1.09%
 114296 91435   2.25948e+08    40   2.28151e+08   2.25673e+08  1436325    1.09%
 114297 91436   2.25948e+08    39   2.28151e+08   2.25673e+08  1436334    1.09%
 114298 91437   2.25948e+08    40   2.28151e+08   2.25673e+08  1436349    1.09%
 114299 91438   2.25948e+08    35   2.28151e+08   2.25673e+08  1436400    1.09%
Elapsed time = 54.48 sec. (66237.98 ticks, tree = 63.28 MB, solutions = 22)
 120697 96919   2.27134e+08    27   2.28151e+08   2.25673e+08  1525536    1.09%
 120698 96920   2.27134e+08    16   2.28151e+08   2.25673e+08  1525537    1.09%
 120699 96921   2.27134e+08    17   2.28151e+08   2.25673e+08  1525552    1.09%
 120700 96922   2.27134e+08    16   2.28151e+08   2.25673e+08  1525560    1.09%
 120701 96923   2.27134e+08    19   2.28151e+08   2.25673e+08  1525577    1.09%
 120702 96924   2.27134e+08    19   2.28151e+08   2.25673e+08  1525653    1.09%
 120703 96925   2.27134e+08    19   2.28151e+08   2.25673e+08  1525672    1.09%
 120704 96926   2.27134e+08    19   2.28151e+08   2.25673e+08  1525690    1.09%
 120705 96927   2.27134e+08    19   2.28151e+08   2.25673e+08  1525803    1.09%
 120706 96926        cutoff         2.28151e+08   2.25673e+08  1525840    1.09%
Elapsed time = 57.88 sec. (70064.73 ticks, tree = 66.97 MB, solutions = 22)
*123499+98395                       2.28026e+08   2.25673e+08             1.03%
*123499+97251                       2.27899e+08   2.25673e+08             0.98%
*123499+91152                       2.27437e+08   2.25673e+08             0.78%
 126631 93734        cutoff         2.27437e+08   2.25673e+08  1608629    0.78%
 126632 93734   2.26766e+08    30   2.27437e+08   2.25673e+08  1608762    0.78%
 126633 93734   2.26766e+08    30   2.27437e+08   2.25673e+08  1608763    0.78%
 126634 93735   2.27134e+08    25   2.27437e+08   2.25673e+08  1608772    0.78%
 126635 93734        cutoff         2.27437e+08   2.25673e+08  1608781    0.78%
 126636 93733        cutoff         2.27437e+08   2.25673e+08  1608786    0.78%
 126637 93734   2.25992e+08    34   2.27437e+08   2.25673e+08  1608946    0.78%
 126638 93735   2.25992e+08    32   2.27437e+08   2.25673e+08  1608949    0.78%
 126639 93736   2.26029e+08    35   2.27437e+08   2.25673e+08  1608969    0.78%
 126640 93737   2.26029e+08    34   2.27437e+08   2.25673e+08  1608971    0.78%
Elapsed time = 61.30 sec. (73892.53 ticks, tree = 64.60 MB, solutions = 25)
 131408 97315        cutoff         2.27437e+08   2.25673e+08  1694504    0.78%
 131409 97316   2.25673e+08    27   2.27437e+08   2.25673e+08  1694558    0.78%
 131410 97317   2.25673e+08    23   2.27437e+08   2.25673e+08  1694568    0.78%
 131411 97318   2.25673e+08    23   2.27437e+08   2.25673e+08  1694580    0.78%
 131412 97319   2.25673e+08    23   2.27437e+08   2.25673e+08  1694593    0.78%
 131413 97320   2.25679e+08    38   2.27437e+08   2.25673e+08  1694661    0.78%
 131414 97321   2.25679e+08    36   2.27437e+08   2.25673e+08  1694663    0.78%
 131415 97322   2.25680e+08    34   2.27437e+08   2.25673e+08  1694668    0.78%
 131416 97323   2.25680e+08    34   2.27437e+08   2.25673e+08  1694670    0.78%
 131417 97324   2.25680e+08    34   2.27437e+08   2.25673e+08  1694671    0.78%
Elapsed time = 64.86 sec. (77714.14 ticks, tree = 66.98 MB, solutions = 25)
 135690 100222   2.25727e+08    39   2.27437e+08   2.25673e+08  1778504    0.78%
 135691 100223   2.25727e+08    39   2.27437e+08   2.25673e+08  1778507    0.78%
 135692 100224   2.25727e+08    39   2.27437e+08   2.25673e+08  1778508    0.78%
 135693 100225   2.25727e+08    39   2.27437e+08   2.25673e+08  1778509    0.78%
 135694 100226   2.25735e+08    39   2.27437e+08   2.25673e+08  1778510    0.78%
 135695 100227   2.25742e+08    38   2.27437e+08   2.25673e+08  1778512    0.78%
 135696 100228   2.25742e+08    38   2.27437e+08   2.25673e+08  1778513    0.78%
 135697 100229   2.25742e+08    38   2.27437e+08   2.25673e+08  1778514    0.78%
 135698 100230   2.25783e+08    38   2.27437e+08   2.25673e+08  1778515    0.78%
 135699 100231   2.25859e+08    35   2.27437e+08   2.25673e+08  1778533    0.78%
Elapsed time = 68.39 sec. (81537.61 ticks, tree = 68.93 MB, solutions = 25)
 140604 103886   2.27134e+08    23   2.27437e+08   2.25673e+08  1862158    0.78%
 140605 103887   2.27134e+08    23   2.27437e+08   2.25673e+08  1862162    0.78%
 140606 103888   2.27134e+08    23   2.27437e+08   2.25673e+08  1862171    0.78%
 140607 103889   2.27134e+08    23   2.27437e+08   2.25673e+08  1862173    0.78%
 140608 103890   2.27134e+08    23   2.27437e+08   2.25673e+08  1862190    0.78%
 140609 103891   2.27134e+08    23   2.27437e+08   2.25673e+08  1862195    0.78%
 140610 103892   2.27134e+08    23   2.27437e+08   2.25673e+08  1862197    0.78%
 140611 103893   2.27134e+08    22   2.27437e+08   2.25673e+08  1862234    0.78%
 140612 103894   2.27134e+08    23   2.27437e+08   2.25673e+08  1862262    0.78%
 140613 103895   2.27134e+08    23   2.27437e+08   2.25673e+08  1862273    0.78%
Elapsed time = 71.97 sec. (85356.33 ticks, tree = 71.43 MB, solutions = 25)
*141399+102389                       2.27223e+08   2.25673e+08             0.68%
 144823 104706   2.27134e+08    29   2.27223e+08   2.25673e+08  1936881    0.68%
 144824 104707   2.27134e+08    27   2.27223e+08   2.25673e+08  1936884    0.68%
 144825 104708   2.27134e+08    32   2.27223e+08   2.25673e+08  1936886    0.68%
 144826 104709   2.27134e+08    33   2.27223e+08   2.25673e+08  1936891    0.68%
 144827 104710   2.27134e+08    30   2.27223e+08   2.25673e+08  1936898    0.68%
 144828 104709        cutoff         2.27223e+08   2.25673e+08  1936902    0.68%
 144829 104710   2.27134e+08    32   2.27223e+08   2.25673e+08  1936904    0.68%
 144830 104711   2.27134e+08    33   2.27223e+08   2.25673e+08  1936905    0.68%
 144831 104712   2.27134e+08    31   2.27223e+08   2.25673e+08  1936906    0.68%
 144832 104713   2.27134e+08    29   2.27223e+08   2.25673e+08  1936912    0.68%
Elapsed time = 75.54 sec. (89174.51 ticks, tree = 71.95 MB, solutions = 26)
 149580 108261   2.26229e+08    44   2.27223e+08   2.25673e+08  2023399    0.68%
 149581 108260        cutoff         2.27223e+08   2.25673e+08  2023402    0.68%
 149582 108259        cutoff         2.27223e+08   2.25673e+08  2023409    0.68%
 149583 108258    infeasible         2.27223e+08   2.25673e+08  2023493    0.68%
 149584 108257        cutoff         2.27223e+08   2.25673e+08  2023575    0.68%
 149585 108256    infeasible         2.27223e+08   2.25673e+08  2023631    0.68%
 149586 108255        cutoff         2.27223e+08   2.25673e+08  2023702    0.68%
 149587 108254        cutoff         2.27223e+08   2.25673e+08  2023722    0.68%
 149588 108255   2.27134e+08    28   2.27223e+08   2.25673e+08  2023749    0.68%
 149589 108256   2.27134e+08    30   2.27223e+08   2.25673e+08  2023758    0.68%
Elapsed time = 79.09 sec. (93005.59 ticks, tree = 74.38 MB, solutions = 26)
 153969 111327   2.25704e+08    36   2.27223e+08   2.25673e+08  2103146    0.68%
 153970 111328   2.25704e+08    34   2.27223e+08   2.25673e+08  2103171    0.68%
 153971 111329   2.25704e+08    36   2.27223e+08   2.25673e+08  2103183    0.68%
 153972 111330   2.25704e+08    37   2.27223e+08   2.25673e+08  2103196    0.68%
 153973 111331   2.25721e+08    42   2.27223e+08   2.25673e+08  2103278    0.68%
 153974 111332   2.25724e+08    37   2.27223e+08   2.25673e+08  2103284    0.68%
 153975 111333   2.25738e+08    38   2.27223e+08   2.25673e+08  2103307    0.68%
 153976 111334   2.25738e+08    37   2.27223e+08   2.25673e+08  2103310    0.68%
 153977 111335   2.25743e+08    36   2.27223e+08   2.25673e+08  2103312    0.68%
 153978 111336   2.25769e+08    35   2.27223e+08   2.25673e+08  2103315    0.68%
Elapsed time = 82.58 sec. (96830.78 ticks, tree = 76.39 MB, solutions = 26)
 158943 114538   2.27134e+08    27   2.27223e+08   2.25673e+08  2191160    0.68%
 158944 114539   2.27134e+08    28   2.27223e+08   2.25673e+08  2191165    0.68%
 158945 114540   2.27134e+08    27   2.27223e+08   2.25673e+08  2191168    0.68%
 158946 114541   2.27134e+08    27   2.27223e+08   2.25673e+08  2191171    0.68%
 158947 114542   2.27134e+08    27   2.27223e+08   2.25673e+08  2191192    0.68%
 158948 114543   2.27134e+08    28   2.27223e+08   2.25673e+08  2191215    0.68%
 158949 114544   2.27134e+08    33   2.27223e+08   2.25673e+08  2191222    0.68%
 158950 114545   2.27134e+08    31   2.27223e+08   2.25673e+08  2191223    0.68%
 158951 114546   2.27134e+08    30   2.27223e+08   2.25673e+08  2191224    0.68%
 158952 114547   2.27134e+08    28   2.27223e+08   2.25673e+08  2191242    0.68%
Elapsed time = 86.11 sec. (100649.97 ticks, tree = 78.51 MB, solutions = 26)
 163800 118391   2.26148e+08    60   2.27223e+08   2.25673e+08  2278403    0.68%
 163801 118392   2.26150e+08    62   2.27223e+08   2.25673e+08  2278407    0.68%
 163802 118393   2.26150e+08    62   2.27223e+08   2.25673e+08  2278408    0.68%
 163803 118394   2.26163e+08    64   2.27223e+08   2.25673e+08  2278436    0.68%
 163804 118394   2.26171e+08    59   2.27223e+08   2.25673e+08  2278443    0.68%
 163805 118395   2.27134e+08    39   2.27223e+08   2.25673e+08  2278472    0.68%
 163806 118396   2.27134e+08    37   2.27223e+08   2.25673e+08  2278480    0.68%
 163807 118397   2.27134e+08    38   2.27223e+08   2.25673e+08  2278496    0.68%
 163808 118398   2.27134e+08    38   2.27223e+08   2.25673e+08  2278499    0.68%
 163809 118399   2.27134e+08    38   2.27223e+08   2.25673e+08  2278502    0.68%
Elapsed time = 89.65 sec. (104478.44 ticks, tree = 81.07 MB, solutions = 26)
 166738 120864   2.27134e+08    32   2.27223e+08   2.25673e+08  2323785    0.68%
 166739 120865   2.27134e+08    31   2.27223e+08   2.25673e+08  2323786    0.68%
 166740 120866   2.27134e+08    33   2.27223e+08   2.25673e+08  2323805    0.68%
 166741 120867   2.27134e+08    31   2.27223e+08   2.25673e+08  2323832    0.68%
 166742 120868   2.27134e+08    33   2.27223e+08   2.25673e+08  2323852    0.68%
 166743 120869   2.27134e+08    38   2.27223e+08   2.25673e+08  2323858    0.68%
 166744 120870   2.27134e+08    36   2.27223e+08   2.25673e+08  2323859    0.68%
 166745 120871   2.27134e+08    32   2.27223e+08   2.25673e+08  2323881    0.68%
 166746 120872   2.27134e+08    33   2.27223e+08   2.25673e+08  2323885    0.68%
 166747 120873   2.27134e+08    33   2.27223e+08   2.25673e+08  2323897    0.68%
Elapsed time = 92.92 sec. (108297.97 ticks, tree = 82.69 MB, solutions = 26)
 171163 124257   2.25673e+08    22   2.27223e+08   2.25673e+08  2400555    0.68%
 171164 124258   2.25673e+08    20   2.27223e+08   2.25673e+08  2400609    0.68%
 171165 124259   2.25673e+08    25   2.27223e+08   2.25673e+08  2400685    0.68%
 171166 124260   2.26048e+08    38   2.27223e+08   2.25673e+08  2400822    0.68%
 171167 124259        cutoff         2.27223e+08   2.25673e+08  2400834    0.68%
 171168 124258        cutoff         2.27223e+08   2.25673e+08  2400844    0.68%
 171169 124259   2.26872e+08    20   2.27223e+08   2.25673e+08  2400946    0.68%
 171170 124258        cutoff         2.27223e+08   2.25673e+08  2400969    0.68%
 171171 124257        cutoff         2.27223e+08   2.25673e+08  2400994    0.68%
 171172 124258   2.25673e+08    20   2.27223e+08   2.25673e+08  2401118    0.68%
Elapsed time = 96.42 sec. (112137.99 ticks, tree = 84.90 MB, solutions = 26)
 175488 127415   2.25673e+08    26   2.27223e+08   2.25673e+08  2481765    0.68%
 175489 127416   2.25673e+08    24   2.27223e+08   2.25673e+08  2481767    0.68%
 175490 127417   2.25673e+08    22   2.27223e+08   2.25673e+08  2481791    0.68%
 175491 127418   2.25673e+08    24   2.27223e+08   2.25673e+08  2481802    0.68%
 175492 127419   2.25673e+08    23   2.27223e+08   2.25673e+08  2481822    0.68%
 175493 127420   2.25673e+08    25   2.27223e+08   2.25673e+08  2481841    0.68%
 175494 127421   2.25673e+08    24   2.27223e+08   2.25673e+08  2481844    0.68%
 175495 127422   2.25673e+08    24   2.27223e+08   2.25673e+08  2481845    0.68%
 175496 127423   2.25673e+08    24   2.27223e+08   2.25673e+08  2481846    0.68%
 175497 127424   2.25673e+08    24   2.27223e+08   2.25673e+08  2481847    0.68%
Elapsed time = 100.00 sec. (115956.93 ticks, tree = 87.04 MB, solutions = 26)

Cover cuts applied:  466
Mixed integer rounding cuts applied:  7
Gomory fractional cuts applied:  3

Root node processing (before b&c):
  Real time             =    0.05 sec. (54.27 ticks)
Sequential b&c:
  Real time             =   99.95 sec. (115913.53 ticks)
                          ------------
Total (root+branch&cut) =  100.00 sec. (115967.80 ticks)

Solution pool: 26 solutions saved.

MIP - Time limit exceeded, integer feasible:  Objective =  2.2722347600e+08
Current MIP best bound =  2.2567326400e+08 (gap = 1.55021e+06, 0.68%)
Solution time =  100.00 sec.  Iterations = 2482004  Nodes = 175509 (127435)
Deterministic time = 115967.81 ticks  (1159.67 ticks/sec)


Incumbent solution written to file '/tmp/tmpyX05XF.cplex.sol'.
